
Gurobi 9.1.2 (win64) logging started Tue Dec  7 13:32:27 2021

Gurobi Optimizer version 9.1.2 build v9.1.2rc0 (win64)
Thread count: 8 physical cores, 8 logical processors, using up to 8 threads
Optimize a model with 1 rows, 21 columns and 20 nonzeros
Model fingerprint: 0xcca43127
Variable types: 1 continuous, 20 integer (20 binary)
Coefficient statistics:
  Matrix range     [1e+00, 1e+01]
  Objective range  [1e+00, 1e+00]
  Bounds range     [2e+01, 2e+01]
  RHS range        [1e+01, 1e+01]
Presolve time: 0.00s
Presolved: 1 rows, 21 columns, 20 nonzeros
Variable types: 1 continuous, 20 integer (20 binary)

Root simplex log...

Iteration    Objective       Primal Inf.    Dual Inf.      Time
       0   -1.5782706e+01   1.021503e-01   0.000000e+00     14s
       3   -1.5782706e+01   0.000000e+00   0.000000e+00     14s

Root relaxation: objective -1.578271e+01, 3 iterations, 0.00 seconds

    Nodes    |    Current Node    |     Objective Bounds      |     Work
 Expl Unexpl |  Obj  Depth IntInf | Incumbent    BestBd   Gap | It/Node Time

*    0     0               0     -15.7827061  -15.78271  0.00%     -   14s

Cutting planes:
  Lazy constraints: 3

Explored 0 nodes (8 simplex iterations) in 14.40 seconds
Thread count was 8 (of 8 available processors)

Solution count 1: -15.7827 
No other solutions better than -15.7827

Optimal solution found (tolerance 1.00e-04)
Best objective -1.578270606289e+01, best bound -1.578270606289e+01, gap 0.0000%

User-callback calls 77, time in user-callback 18.15 sec
